NAME : mtspf
TYPE : AGTSP
DIMENSION : 65
GTSP_SETS : 35
EDGE_WEIGHT_TYPE : EXPLICIT
EDGE_WEIGHT_FORMAT : FULL_MATRIX
EDGE_WEIGHT_SECTION
0 0 99999 99999 99999 99999 99999 99999 99999 99999 99999 99999 99999 99999 99999 99999 99999 99999 99999 99999 99999 99999 99999 99999 99999 2 3 4 3 31 32 31 30 41 42 41 40 24 25 24 23 15 14 13 14 19 20 19 18 23 24 23 22 16 17 16 15 14 15 14 13 29 30 29 28 
99999 0 0 99999 99999 99999 99999 99999 99999 99999 99999 99999 99999 99999 99999 99999 99999 99999 99999 99999 99999 99999 99999 99999 99999 12 11 10 11 33 34 33 32 51 52 51 50 24 25 24 23 25 24 25 26 29 30 29 28 33 34 33 32 26 27 26 25 24 25 24 23 39 40 39 38 
99999 99999 0 0 99999 99999 99999 99999 99999 99999 99999 99999 99999 99999 99999 99999 99999 99999 99999 99999 99999 99999 99999 99999 99999 16 15 16 17 15 16 17 16 31 30 29 30 8 9 10 9 29 28 29 30 11 10 11 12 15 14 15 16 22 21 22 23 6 5 6 7 23 22 23 24 
99999 99999 99999 0 0 99999 99999 99999 99999 99999 99999 99999 99999 99999 99999 99999 99999 99999 99999 99999 99999 99999 99999 99999 99999 16 15 16 17 21 22 21 20 39 40 39 38 12 13 12 11 29 28 29 30 17 18 17 16 21 22 21 20 22 21 22 23 12 13 12 11 27 28 27 26 
99999 99999 99999 99999 0 0 99999 99999 99999 99999 99999 99999 99999 99999 99999 99999 99999 99999 99999 99999 99999 99999 99999 99999 99999 6 5 6 7 31 32 31 30 39 38 37 38 24 25 24 23 15 14 13 14 17 16 15 16 21 20 19 20 14 13 12 13 14 15 14 13 27 26 25 26 
99999 99999 99999 99999 99999 0 0 99999 99999 99999 99999 99999 99999 99999 99999 99999 99999 99999 99999 99999 99999 99999 99999 99999 99999 22 21 20 21 19 18 17 18 37 36 35 36 10 9 8 9 35 34 33 34 17 16 15 16 21 20 19 20 28 27 26 27 12 11 10 11 29 28 27 28 
99999 99999 99999 99999 99999 99999 0 0 99999 99999 99999 99999 99999 99999 99999 99999 99999 99999 99999 99999 99999 99999 99999 99999 99999 31 30 29 30 6 7 6 5 24 25 24 23 11 10 9 10 44 43 42 43 26 25 24 25 30 29 28 29 37 36 35 36 21 20 19 20 38 37 36 37 
99999 99999 99999 99999 99999 99999 99999 0 0 99999 99999 99999 99999 99999 99999 99999 99999 99999 99999 99999 99999 99999 99999 99999 99999 16 15 16 17 15 16 17 16 33 32 31 32 8 9 10 9 29 28 29 30 11 10 9 10 15 14 13 14 22 21 22 23 6 5 4 5 23 22 23 24 
99999 99999 99999 99999 99999 99999 99999 99999 0 0 99999 99999 99999 99999 99999 99999 99999 99999 99999 99999 99999 99999 99999 99999 99999 9 8 7 8 30 29 28 29 48 47 46 47 21 20 19 20 20 19 18 19 26 25 24 25 30 29 28 29 23 22 21 22 21 20 19 20 36 35 34 35 
99999 99999 99999 99999 99999 99999 99999 99999 99999 0 0 99999 99999 99999 99999 99999 99999 99999 99999 99999 99999 99999 99999 99999 99999 19 20 19 18 46 47 46 45 30 31 30 29 39 40 39 38 6 7 6 5 24 25 24 23 20 21 20 19 13 14 13 12 29 30 29 28 18 19 18 17 
99999 99999 99999 99999 99999 99999 99999 99999 99999 99999 0 0 99999 99999 99999 99999 99999 99999 99999 99999 99999 99999 99999 99999 99999 7 8 7 6 34 35 34 33 44 43 42 43 27 28 27 26 16 15 14 15 22 21 20 21 26 25 24 25 19 18 17 18 17 18 17 16 32 31 30 31 
99999 99999 99999 99999 99999 99999 99999 99999 99999 99999 99999 0 0 99999 99999 99999 99999 99999 99999 99999 99999 99999 99999 99999 99999 18 17 18 19 33 34 33 32 27 26 25 26 26 27 26 25 13 12 11 12 11 12 11 10 7 8 7 6 4 3 4 5 16 17 16 15 15 14 13 14 
99999 99999 99999 99999 99999 99999 99999 99999 99999 99999 99999 99999 0 0 99999 99999 99999 99999 99999 99999 99999 99999 99999 99999 99999 12 13 14 13 31 32 31 30 31 32 31 30 24 25 24 23 15 14 13 14 9 10 9 8 13 14 13 12 8 7 6 7 14 15 14 13 19 20 19 18 
99999 99999 99999 99999 99999 99999 99999 99999 99999 99999 99999 99999 99999 0 0 99999 99999 99999 99999 99999 99999 99999 99999 99999 99999 11 10 9 10 32 31 30 31 50 49 48 49 23 22 21 22 22 21 20 21 28 27 26 27 32 31 30 31 25 24 23 24 23 22 21 22 38 37 36 37 
99999 99999 99999 99999 99999 99999 99999 99999 99999 99999 99999 99999 99999 99999 0 0 99999 99999 99999 99999 99999 99999 99999 99999 99999 30 31 32 31 19 20 19 18 13 14 13 12 18 19 20 19 27 26 25 26 13 14 15 14 13 12 11 12 20 19 18 19 18 19 20 19 21 20 19 20 
99999 99999 99999 99999 99999 99999 99999 99999 99999 99999 99999 99999 99999 99999 99999 0 0 99999 99999 99999 99999 99999 99999 99999 99999 9 8 7 8 24 25 24 23 44 43 42 43 17 18 17 16 22 21 20 21 22 21 20 21 26 25 24 25 19 18 17 18 17 16 15 16 32 31 30 31 
99999 99999 99999 99999 99999 99999 99999 99999 99999 99999 99999 99999 99999 99999 99999 99999 0 0 99999 99999 99999 99999 99999 99999 99999 33 32 31 32 18 17 16 17 36 35 34 35 13 12 11 12 46 45 44 45 28 27 26 27 32 31 30 31 39 38 37 38 23 22 21 22 40 39 38 39 
99999 99999 99999 99999 99999 99999 99999 99999 99999 99999 99999 99999 99999 99999 99999 99999 99999 0 0 99999 99999 99999 99999 99999 99999 27 26 27 28 28 29 30 29 18 17 16 17 21 22 23 22 16 15 16 17 10 9 10 11 6 5 6 7 13 12 13 14 15 14 15 16 10 9 10 11 
99999 99999 99999 99999 99999 99999 99999 99999 99999 99999 99999 99999 99999 99999 99999 99999 99999 99999 0 0 99999 99999 99999 99999 99999 36 35 36 37 9 8 7 8 27 26 25 26 16 15 16 17 49 48 49 50 31 30 31 32 35 34 35 36 42 41 42 43 26 25 26 27 43 42 43 44 
99999 99999 99999 99999 99999 99999 99999 99999 99999 99999 99999 99999 99999 99999 99999 99999 99999 99999 99999 0 0 99999 99999 99999 99999 15 16 15 14 42 43 42 41 40 41 40 39 35 36 35 34 12 13 12 11 20 21 20 19 22 23 22 21 15 16 15 14 25 26 25 24 28 29 28 27 
99999 99999 99999 99999 99999 99999 99999 99999 99999 99999 99999 99999 99999 99999 99999 99999 99999 99999 99999 99999 0 0 99999 99999 99999 28 29 30 29 35 36 35 34 17 18 17 16 28 29 28 27 17 18 19 18 11 12 13 12 7 8 9 8 14 15 16 15 16 17 18 17 5 4 3 4 
99999 99999 99999 99999 99999 99999 99999 99999 99999 99999 99999 99999 99999 99999 99999 99999 99999 99999 99999 99999 99999 0 0 99999 99999 11 10 11 12 20 21 20 19 34 33 32 33 13 14 13 12 26 25 24 25 12 11 10 11 16 15 14 15 19 18 17 18 7 6 5 6 22 21 20 21 
99999 99999 99999 99999 99999 99999 99999 99999 99999 99999 99999 99999 99999 99999 99999 99999 99999 99999 99999 99999 99999 99999 0 0 99999 15 16 15 14 36 37 36 35 54 55 54 53 27 28 27 26 26 27 26 25 32 33 32 31 36 37 36 35 29 30 29 28 27 28 27 26 42 43 42 41 
99999 99999 99999 99999 99999 99999 99999 99999 99999 99999 99999 99999 99999 99999 99999 99999 99999 99999 99999 99999 99999 99999 99999 0 0 37 38 39 38 24 25 24 23 6 7 6 5 25 26 27 26 26 27 28 27 20 21 22 21 16 17 18 17 23 24 25 24 25 26 27 26 16 15 14 15 
0 99999 99999 99999 99999 99999 99999 99999 99999 99999 99999 99999 99999 99999 99999 99999 99999 99999 99999 99999 99999 99999 99999 99999 0 7 6 5 6 28 29 28 27 46 47 46 45 19 20 19 18 20 19 20 21 24 25 24 23 28 29 28 27 21 22 21 20 19 20 19 18 34 35 34 33 
0 0 0 0 0 0 0 0 0 0 0 0 0 0 0 0 0 0 0 0 0 0 0 0 0 0 0 0 0 29 30 29 28 43 42 41 42 22 23 22 21 17 16 15 16 21 20 19 20 25 24 23 24 18 17 16 17 16 15 14 15 31 30 29 30 
0 0 0 0 0 0 0 0 0 0 0 0 0 0 0 0 0 0 0 0 0 0 0 0 0 0 0 0 0 30 31 30 29 42 43 42 41 23 24 23 22 16 15 14 15 20 21 20 19 24 25 24 23 17 18 17 16 15 16 15 14 30 31 30 29 
0 0 0 0 0 0 0 0 0 0 0 0 0 0 0 0 0 0 0 0 0 0 0 0 0 0 0 0 0 29 30 31 30 41 42 41 40 22 23 24 23 15 14 15 16 19 20 19 18 23 24 23 22 16 17 16 15 14 15 14 13 29 30 29 28 
0 0 0 0 0 0 0 0 0 0 0 0 0 0 0 0 0 0 0 0 0 0 0 0 0 0 0 0 0 28 29 30 29 42 41 40 41 21 22 23 22 16 15 16 17 20 19 18 19 24 23 22 23 17 16 15 16 15 14 13 14 30 29 28 29 
0 0 0 0 0 0 0 0 0 0 0 0 0 0 0 0 0 0 0 0 0 0 0 0 0 31 30 29 30 0 0 0 0 22 21 20 21 11 10 11 12 44 43 42 43 26 25 24 25 30 29 28 29 37 36 35 36 21 20 19 20 38 37 36 37 
0 0 0 0 0 0 0 0 0 0 0 0 0 0 0 0 0 0 0 0 0 0 0 0 0 30 29 28 29 0 0 0 0 21 20 19 20 10 11 12 11 43 42 41 42 25 24 23 24 29 28 27 28 36 35 34 35 20 19 18 19 37 36 35 36 
0 0 0 0 0 0 0 0 0 0 0 0 0 0 0 0 0 0 0 0 0 0 0 0 0 29 28 29 30 0 0 0 0 20 19 18 19 11 12 13 12 42 41 42 43 24 23 24 25 28 27 28 29 35 34 35 36 19 18 19 20 36 35 36 37 
0 0 0 0 0 0 0 0 0 0 0 0 0 0 0 0 0 0 0 0 0 0 0 0 0 30 29 30 31 0 0 0 0 21 20 19 20 12 11 12 13 43 42 43 44 25 24 25 26 29 28 29 30 36 35 36 37 20 19 20 21 37 36 37 38 
0 0 0 0 0 0 0 0 0 0 0 0 0 0 0 0 0 0 0 0 0 0 0 0 0 41 40 41 42 18 19 20 19 0 0 0 0 29 28 29 30 30 29 30 31 24 23 24 25 20 19 20 21 27 26 27 28 29 28 29 30 20 19 18 19 
0 0 0 0 0 0 0 0 0 0 0 0 0 0 0 0 0 0 0 0 0 0 0 0 0 40 41 42 41 19 20 21 20 0 0 0 0 28 29 30 29 29 30 31 30 23 24 25 24 19 20 21 20 26 27 28 27 28 29 30 29 19 18 17 18 
0 0 0 0 0 0 0 0 0 0 0 0 0 0 0 0 0 0 0 0 0 0 0 0 0 41 42 43 42 20 21 22 21 0 0 0 0 29 30 31 30 30 31 32 31 24 25 26 25 20 21 22 21 27 28 29 28 29 30 31 30 18 17 18 19 
0 0 0 0 0 0 0 0 0 0 0 0 0 0 0 0 0 0 0 0 0 0 0 0 0 42 41 42 43 19 20 21 20 0 0 0 0 30 29 30 31 31 30 31 32 25 24 25 26 21 20 21 22 28 27 28 29 30 29 30 31 19 18 19 20 
0 0 0 0 0 0 0 0 0 0 0 0 0 0 0 0 0 0 0 0 0 0 0 0 0 24 23 22 23 13 12 11 12 31 30 29 30 0 0 0 0 37 36 35 36 19 18 17 18 23 22 21 22 30 29 28 29 14 13 12 13 31 30 29 30 
0 0 0 0 0 0 0 0 0 0 0 0 0 0 0 0 0 0 0 0 0 0 0 0 0 23 22 21 22 12 13 12 11 30 31 30 29 0 0 0 0 36 35 34 35 18 17 16 17 22 21 20 21 29 28 27 28 13 12 11 12 30 29 28 29 
0 0 0 0 0 0 0 0 0 0 0 0 0 0 0 0 0 0 0 0 0 0 0 0 0 22 21 22 23 11 12 11 10 29 30 29 28 0 0 0 0 35 34 35 36 17 16 17 18 21 20 21 22 28 27 28 29 12 11 12 13 29 28 29 30 
0 0 0 0 0 0 0 0 0 0 0 0 0 0 0 0 0 0 0 0 0 0 0 0 0 23 22 23 24 12 11 10 11 30 29 28 29 0 0 0 0 36 35 36 37 18 17 18 19 22 21 22 23 29 28 29 30 13 12 13 14 30 29 30 31 
0 0 0 0 0 0 0 0 0 0 0 0 0 0 0 0 0 0 0 0 0 0 0 0 0 15 16 15 14 42 43 42 41 32 31 30 31 35 36 35 34 0 0 0 0 20 21 20 19 16 17 16 15 9 10 9 8 25 26 25 24 20 19 18 19 
0 0 0 0 0 0 0 0 0 0 0 0 0 0 0 0 0 0 0 0 0 0 0 0 0 16 17 16 15 43 44 43 42 31 32 31 30 36 37 36 35 0 0 0 0 21 22 21 20 17 18 17 16 10 11 10 9 26 27 26 25 19 20 19 18 
0 0 0 0 0 0 0 0 0 0 0 0 0 0 0 0 0 0 0 0 0 0 0 0 0 15 16 17 16 42 43 44 43 30 31 30 29 35 36 37 36 0 0 0 0 20 21 22 21 16 17 18 17 9 10 11 10 25 26 27 26 18 19 18 17 
0 0 0 0 0 0 0 0 0 0 0 0 0 0 0 0 0 0 0 0 0 0 0 0 0 14 15 16 15 41 42 43 42 31 30 29 30 34 35 36 35 0 0 0 0 19 20 21 20 15 16 17 16 8 9 10 9 24 25 26 25 19 18 17 18 
0 0 0 0 0 0 0 0 0 0 0 0 0 0 0 0 0 0 0 0 0 0 0 0 0 19 18 19 20 24 25 24 23 26 25 24 25 17 18 17 16 22 21 20 21 0 0 0 0 8 7 6 7 15 14 13 14 5 6 7 6 16 15 14 15 
0 0 0 0 0 0 0 0 0 0 0 0 0 0 0 0 0 0 0 0 0 0 0 0 0 18 19 20 19 25 26 25 24 25 26 25 24 18 19 18 17 21 20 19 20 0 0 0 0 7 6 5 6 14 13 12 13 6 7 8 7 15 14 13 14 
0 0 0 0 0 0 0 0 0 0 0 0 0 0 0 0 0 0 0 0 0 0 0 0 0 19 20 21 20 24 25 26 25 24 25 24 23 17 18 19 18 20 19 20 21 0 0 0 0 6 5 4 5 13 12 13 14 7 8 9 8 14 13 14 15 
0 0 0 0 0 0 0 0 0 0 0 0 0 0 0 0 0 0 0 0 0 0 0 0 0 20 19 20 21 23 24 25 24 25 24 23 24 16 17 18 17 21 20 21 22 0 0 0 0 7 6 5 6 14 13 14 15 6 7 8 7 15 14 15 16 
0 0 0 0 0 0 0 0 0 0 0 0 0 0 0 0 0 0 0 0 0 0 0 0 0 23 22 23 24 28 29 28 27 22 21 20 21 21 22 21 20 18 17 16 17 4 5 6 5 0 0 0 0 9 8 9 10 9 10 11 10 12 11 10 11 
0 0 0 0 0 0 0 0 0 0 0 0 0 0 0 0 0 0 0 0 0 0 0 0 0 22 23 24 23 29 30 29 28 21 22 21 20 22 23 22 21 17 16 15 16 5 6 7 6 0 0 0 0 8 7 8 9 10 11 12 11 11 10 9 10 
0 0 0 0 0 0 0 0 0 0 0 0 0 0 0 0 0 0 0 0 0 0 0 0 0 23 24 25 24 28 29 30 29 20 21 20 19 21 22 23 22 16 15 16 17 6 7 8 7 0 0 0 0 9 8 9 10 11 12 13 12 10 9 10 11 
0 0 0 0 0 0 0 0 0 0 0 0 0 0 0 0 0 0 0 0 0 0 0 0 0 24 23 24 25 27 28 29 28 21 20 19 20 20 21 22 21 17 16 17 18 5 6 7 6 0 0 0 0 10 9 10 11 10 11 12 11 11 10 11 12 
0 0 0 0 0 0 0 0 0 0 0 0 0 0 0 0 0 0 0 0 0 0 0 0 0 16 15 16 17 35 36 35 34 29 28 27 28 28 29 28 27 11 10 9 10 13 14 13 12 9 10 9 8 0 0 0 0 18 19 18 17 17 16 15 16 
0 0 0 0 0 0 0 0 0 0 0 0 0 0 0 0 0 0 0 0 0 0 0 0 0 15 16 17 16 36 37 36 35 28 29 28 27 29 30 29 28 10 9 8 9 14 15 14 13 10 11 10 9 0 0 0 0 19 20 19 18 16 17 16 15 
0 0 0 0 0 0 0 0 0 0 0 0 0 0 0 0 0 0 0 0 0 0 0 0 0 16 17 18 17 35 36 37 36 27 28 27 26 28 29 30 29 9 8 9 10 13 14 15 14 9 10 9 8 0 0 0 0 18 19 20 19 15 16 15 14 
0 0 0 0 0 0 0 0 0 0 0 0 0 0 0 0 0 0 0 0 0 0 0 0 0 17 16 17 18 34 35 36 35 28 27 26 27 27 28 29 28 10 9 10 11 12 13 14 13 8 9 8 7 0 0 0 0 17 18 19 18 16 15 14 15 
0 0 0 0 0 0 0 0 0 0 0 0 0 0 0 0 0 0 0 0 0 0 0 0 0 14 13 14 15 19 20 19 18 31 30 29 30 12 13 12 11 27 26 25 26 9 8 7 8 13 12 11 12 20 19 18 19 0 0 0 0 21 20 19 20 
0 0 0 0 0 0 0 0 0 0 0 0 0 0 0 0 0 0 0 0 0 0 0 0 0 13 14 15 14 20 21 20 19 30 31 30 29 13 14 13 12 26 25 24 25 8 7 6 7 12 11 10 11 19 18 17 18 0 0 0 0 20 19 18 19 
0 0 0 0 0 0 0 0 0 0 0 0 0 0 0 0 0 0 0 0 0 0 0 0 0 14 15 16 15 19 20 21 20 29 30 29 28 12 13 14 13 25 24 25 26 7 6 5 6 11 10 9 10 18 17 18 19 0 0 0 0 19 18 19 20 
0 0 0 0 0 0 0 0 0 0 0 0 0 0 0 0 0 0 0 0 0 0 0 0 0 15 14 15 16 18 19 20 19 30 29 28 29 11 12 13 12 26 25 26 27 8 7 6 7 12 11 10 11 19 18 19 20 0 0 0 0 20 19 20 21 
0 0 0 0 0 0 0 0 0 0 0 0 0 0 0 0 0 0 0 0 0 0 0 0 0 29 28 29 30 36 37 36 35 18 19 18 17 29 30 29 28 18 17 18 19 14 15 14 13 10 11 10 9 15 14 15 16 19 20 19 18 0 0 0 0 
0 0 0 0 0 0 0 0 0 0 0 0 0 0 0 0 0 0 0 0 0 0 0 0 0 28 29 30 29 37 38 37 36 19 20 19 18 30 31 30 29 17 18 19 18 15 16 15 14 11 12 11 10 14 15 16 15 20 21 20 19 0 0 0 0 
0 0 0 0 0 0 0 0 0 0 0 0 0 0 0 0 0 0 0 0 0 0 0 0 0 29 30 31 30 36 37 38 37 18 19 20 19 29 30 31 30 18 19 20 19 14 15 16 15 10 11 12 11 15 16 17 16 19 20 21 20 0 0 0 0 
0 0 0 0 0 0 0 0 0 0 0 0 0 0 0 0 0 0 0 0 0 0 0 0 0 30 29 30 31 35 36 37 36 17 18 19 18 28 29 30 29 19 18 19 20 13 14 15 14 9 10 11 10 16 15 16 17 18 19 20 19 0 0 0 0 
GTSP_SET_SECTION
1 1 -1
2 2 -1
3 3 -1
4 4 -1
5 5 -1
6 6 -1
7 7 -1
8 8 -1
9 9 -1
10 10 -1
11 11 -1
12 12 -1
13 13 -1
14 14 -1
15 15 -1
16 16 -1
17 17 -1
18 18 -1
19 19 -1
20 20 -1
21 21 -1
22 22 -1
23 23 -1
24 24 -1
25 25 -1
26 26 27 28 29 -1
27 30 31 32 33 -1
28 34 35 36 37 -1
29 38 39 40 41 -1
30 42 43 44 45 -1
31 46 47 48 49 -1
32 50 51 52 53 -1
33 54 55 56 57 -1
34 58 59 60 61 -1
35 62 63 64 65 -1
